lbl,CUST NO.,READY TIME,XCOORD.,YCOORD.,DEMAND,DUE DATE,SERVICE TIME
8,73,35,87,39,20,137,90
8,116,73,93,36,20,191,90
8,129,260,88,35,20,383,90
8,11,349,86,36,20,479,90
8,6,448,86,37,10,561,90
8,122,532,84,36,10,661,90
8,139,636,84,39,20,743,90
